Minimize
	value: tt

Subject to
tt + 1024 s_1_1 > 0.0
tt - t_1_1 - 1026.799397 s_1_1 + 2.799397 s_1_7 > -1023.119800
tt + 1024 s_2_1 > 0.0
tt - t_2_1 - 1027.236027 s_2_1 + 3.236027 s_2_7 > -1019.963167
tt + 1024 s_1_2 > 0.0
tt - t_1_2 - 1025.399699 s_1_2 + 1.399699 s_1_7 > -1023.130500
tt + 1024 s_2_2 > 0.0
tt - t_2_2 - 1025.618014 s_2_2 + 1.618014 s_2_7 > -1019.920650
tt + 1024 s_1_3 > 0.0
tt - t_1_3 - 1028.199096 s_1_3 + 4.199096 s_1_7 > -1023.848400
tt + 1024 s_2_3 > 0.0
tt - t_2_3 - 1028.854041 s_2_3 + 4.854041 s_2_7 > -1022.606956
tt + 1024 s_1_4 > 0.0
tt - t_1_4 - 1025.399699 s_1_4 + 1.399699 s_1_7 > -1023.760700
tt + 1024 s_2_4 > 0.0
tt - t_2_4 - 1025.618014 s_2_4 + 1.618014 s_2_7 > -1021.929350
tt + 1024 s_1_5 > 0.0
tt - t_1_5 - 1026.099548 s_1_5 + 2.099548 s_1_8 > -1023.628611
tt + 1024 s_2_5 > 0.0
tt - t_2_5 - 1026.427020 s_2_5 + 2.427020 s_2_8 > -1021.747875
tt + 1024 s_1_6 > 0.0
tt - t_1_6 - 1049.194574 s_1_6 + 25.194574 s_1_2 > -1023.920111
tt + 1024 s_2_6 > 0.0
tt - t_2_6 - 1053.124245 s_2_6 + 29.124245 s_2_2 > -1023.036111
tt + 1024 s_1_7 > 0.0
tt - t_1_7 - 1024.000000 s_1_7 > -1022.892711
tt + 1024 s_2_7 > 0.0
tt - t_2_7 - 1024.000000 s_2_7 > -1022.627800
tt + 1024 s_1_8 > 0.0
tt - t_1_8 - 1024.000000 s_1_8 > -1022.924600
tt + 1024 s_2_8 > 0.0
tt - t_2_8 - 1024.000000 s_2_8 > -1022.929011
s_1_1 + s_2_1  = 1
s_1_2 + s_2_2  = 1
s_1_3 + s_2_3  = 1
s_1_4 + s_2_4  = 1
s_1_5 + s_2_5  = 1
s_1_6 + s_2_6  = 1
s_1_7 + s_2_7  = 1
s_1_8 + s_2_8  = 1
s_1_1 + s_1_2 + 1024 r_1_1_2 >= 2
- s_1_1 - s_1_2 - 1024 r_1_1_2 >= -1025
t_1_1 - t_1_2 - 1024.000000 u_1_1_2 - 1.399699 s_1_2 + 1.399699 s_1_7 + 2048.000000 r_1_1_2 > -1023.130500
s_2_1 + s_2_2 + 1024 r_2_1_2 >= 2
- s_2_1 - s_2_2 - 1024 r_2_1_2 >= -1025
t_2_1 - t_2_2 - 1024.000000 u_2_1_2 - 1.618014 s_2_2 + 1.618014 s_2_7 + 2048.000000 r_2_1_2 > -1019.920650
s_1_1 + s_1_3 + 1024 r_1_1_3 >= 2
- s_1_1 - s_1_3 - 1024 r_1_1_3 >= -1025
t_1_1 - t_1_3 - 1024.000000 u_1_1_3 - 2.099548 s_1_3 + 2.099548 s_1_7 + 2048.000000 r_1_1_3 > -1023.848400
s_2_1 + s_2_3 + 1024 r_2_1_3 >= 2
- s_2_1 - s_2_3 - 1024 r_2_1_3 >= -1025
t_2_1 - t_2_3 - 1024.000000 u_2_1_3 - 2.427020 s_2_3 + 2.427020 s_2_7 + 2048.000000 r_2_1_3 > -1022.606956
s_1_1 + s_1_4 + 1024 r_1_1_4 >= 2
- s_1_1 - s_1_4 - 1024 r_1_1_4 >= -1025
t_1_1 - t_1_4 - 1024.000000 u_1_1_4 - 1.399699 s_1_4 + 1.399699 s_1_7 + 2048.000000 r_1_1_4 > -1023.760700
s_2_1 + s_2_4 + 1024 r_2_1_4 >= 2
- s_2_1 - s_2_4 - 1024 r_2_1_4 >= -1025
t_2_1 - t_2_4 - 1024.000000 u_2_1_4 - 1.618014 s_2_4 + 1.618014 s_2_7 + 2048.000000 r_2_1_4 > -1021.929350
s_1_1 + s_1_5 + 1024 r_1_1_5 >= 2
- s_1_1 - s_1_5 - 1024 r_1_1_5 >= -1025
t_1_1 - t_1_5 - 1024.000000 u_1_1_5 - 2.099548 s_1_5 + 2.099548 s_1_8 + 2048.000000 r_1_1_5 > -1023.628611
s_2_1 + s_2_5 + 1024 r_2_1_5 >= 2
- s_2_1 - s_2_5 - 1024 r_2_1_5 >= -1025
t_2_1 - t_2_5 - 1024.000000 u_2_1_5 - 2.427020 s_2_5 + 2.427020 s_2_8 + 2048.000000 r_2_1_5 > -1021.747875
t_1_6 - t_1_1 - 2.279899 s_1_1 + 1.399699 s_1_7 > 0.0
t_1_6 - t_2_1 - 5.654847 s_2_1 + 1.618014 s_2_7 > 0.0
t_2_6 - t_1_1 - 2.279899 s_1_1 + 1.399699 s_1_7 > 0.0
t_2_6 - t_2_1 - 5.654847 s_2_1 + 1.618014 s_2_7 > 0.0
t_1_1 - t_1_7 - 1024.000000 s_1_7 > -1022.892711
t_1_1 - t_2_7 - 1024.000000 s_2_7 > -1022.627800
t_2_1 - t_1_7 - 1024.000000 s_1_7 > -1022.892711
t_2_1 - t_2_7 - 1024.000000 s_2_7 > -1022.627800
t_1_1 - t_1_8 - 1024.000000 s_1_8 > -1022.924600
t_1_1 - t_2_8 - 1024.000000 s_2_8 > -1022.929011
t_2_1 - t_1_8 - 1024.000000 s_1_8 > -1022.924600
t_2_1 - t_2_8 - 1024.000000 s_2_8 > -1022.929011
s_1_2 + s_1_1 + 1024 r_1_1_2 >= 2
- s_1_2 - s_1_1 - 1024 r_1_1_2 >= -1025
t_1_2 - t_1_1 + 1024.000000 u_1_1_2 - 1.399699 s_1_1 + 1.399699 s_1_7 + 2048.000000 r_1_1_2 > 0.880200
s_2_2 + s_2_1 + 1024 r_2_1_2 >= 2
- s_2_2 - s_2_1 - 1024 r_2_1_2 >= -1025
t_2_2 - t_2_1 + 1024.000000 u_2_1_2 - 1.618014 s_2_1 + 1.618014 s_2_7 + 2048.000000 r_2_1_2 > 4.036833
s_1_2 + s_1_3 + 1024 r_1_2_3 >= 2
- s_1_2 - s_1_3 - 1024 r_1_2_3 >= -1025
t_1_2 - t_1_3 - 1024.000000 u_1_2_3 - 2.099548 s_1_3 + 2.099548 s_1_7 + 2048.000000 r_1_2_3 > -1023.848400
s_2_2 + s_2_3 + 1024 r_2_2_3 >= 2
- s_2_2 - s_2_3 - 1024 r_2_2_3 >= -1025
t_2_2 - t_2_3 - 1024.000000 u_2_2_3 - 2.427020 s_2_3 + 2.427020 s_2_7 + 2048.000000 r_2_2_3 > -1022.606956
s_1_2 + s_1_4 + 1024 r_1_2_4 >= 2
- s_1_2 - s_1_4 - 1024 r_1_2_4 >= -1025
t_1_2 - t_1_4 - 1024.000000 u_1_2_4 - 1.399699 s_1_4 + 1.399699 s_1_7 + 2048.000000 r_1_2_4 > -1023.760700
s_2_2 + s_2_4 + 1024 r_2_2_4 >= 2
- s_2_2 - s_2_4 - 1024 r_2_2_4 >= -1025
t_2_2 - t_2_4 - 1024.000000 u_2_2_4 - 1.618014 s_2_4 + 1.618014 s_2_7 + 2048.000000 r_2_2_4 > -1021.929350
s_1_2 + s_1_5 + 1024 r_1_2_5 >= 2
- s_1_2 - s_1_5 - 1024 r_1_2_5 >= -1025
t_1_2 - t_1_5 - 1024.000000 u_1_2_5 - 2.099548 s_1_5 + 2.099548 s_1_8 + 2048.000000 r_1_2_5 > -1023.628611
s_2_2 + s_2_5 + 1024 r_2_2_5 >= 2
- s_2_2 - s_2_5 - 1024 r_2_2_5 >= -1025
t_2_2 - t_2_5 - 1024.000000 u_2_2_5 - 2.427020 s_2_5 + 2.427020 s_2_8 + 2048.000000 r_2_2_5 > -1021.747875
t_1_6 - t_1_2 - 2.269199 s_1_2 + 1.399699 s_1_7 > 0.0
t_1_6 - t_2_2 - 5.697364 s_2_2 + 1.618014 s_2_7 > 0.0
t_2_6 - t_1_2 - 2.269199 s_1_2 + 1.399699 s_1_7 > 0.0
t_2_6 - t_2_2 - 5.697364 s_2_2 + 1.618014 s_2_7 > 0.0
t_1_2 - t_1_7 - 1024.000000 s_1_7 > -1022.892711
t_1_2 - t_2_7 - 1024.000000 s_2_7 > -1022.627800
t_2_2 - t_1_7 - 1024.000000 s_1_7 > -1022.892711
t_2_2 - t_2_7 - 1024.000000 s_2_7 > -1022.627800
s_1_2 + s_1_8 + 1024 r_1_2_8 >= 2
- s_1_2 - s_1_8 - 1024 r_1_2_8 >= -1025
t_1_2 - t_1_8 - 1024.000000 u_1_2_8 + 2048.000000 r_1_2_8 > -1022.924600
s_2_2 + s_2_8 + 1024 r_2_2_8 >= 2
- s_2_2 - s_2_8 - 1024 r_2_2_8 >= -1025
t_2_2 - t_2_8 - 1024.000000 u_2_2_8 + 2048.000000 r_2_2_8 > -1022.929011
s_1_3 + s_1_1 + 1024 r_1_1_3 >= 2
- s_1_3 - s_1_1 - 1024 r_1_1_3 >= -1025
t_1_3 - t_1_1 + 1024.000000 u_1_1_3 - 1.399699 s_1_1 + 1.399699 s_1_7 + 2048.000000 r_1_1_3 > 0.880200
s_2_3 + s_2_1 + 1024 r_2_1_3 >= 2
- s_2_3 - s_2_1 - 1024 r_2_1_3 >= -1025
t_2_3 - t_2_1 + 1024.000000 u_2_1_3 - 1.618014 s_2_1 + 1.618014 s_2_7 + 2048.000000 r_2_1_3 > 4.036833
s_1_3 + s_1_2 + 1024 r_1_2_3 >= 2
- s_1_3 - s_1_2 - 1024 r_1_2_3 >= -1025
t_1_3 - t_1_2 + 1024.000000 u_1_2_3 - 1.399699 s_1_2 + 1.399699 s_1_7 + 2048.000000 r_1_2_3 > 0.869500
s_2_3 + s_2_2 + 1024 r_2_2_3 >= 2
- s_2_3 - s_2_2 - 1024 r_2_2_3 >= -1025
t_2_3 - t_2_2 + 1024.000000 u_2_2_3 - 1.618014 s_2_2 + 1.618014 s_2_7 + 2048.000000 r_2_2_3 > 4.079350
s_1_3 + s_1_4 + 1024 r_1_3_4 >= 2
- s_1_3 - s_1_4 - 1024 r_1_3_4 >= -1025
t_1_3 - t_1_4 - 1024.000000 u_1_3_4 - 1.399699 s_1_4 + 1.399699 s_1_7 + 2048.000000 r_1_3_4 > -1023.760700
s_2_3 + s_2_4 + 1024 r_2_3_4 >= 2
- s_2_3 - s_2_4 - 1024 r_2_3_4 >= -1025
t_2_3 - t_2_4 - 1024.000000 u_2_3_4 - 1.618014 s_2_4 + 1.618014 s_2_7 + 2048.000000 r_2_3_4 > -1021.929350
s_1_3 + s_1_5 + 1024 r_1_3_5 >= 2
- s_1_3 - s_1_5 - 1024 r_1_3_5 >= -1025
t_1_3 - t_1_5 - 1024.000000 u_1_3_5 - 2.099548 s_1_5 + 2.099548 s_1_8 + 2048.000000 r_1_3_5 > -1023.628611
s_2_3 + s_2_5 + 1024 r_2_3_5 >= 2
- s_2_3 - s_2_5 - 1024 r_2_3_5 >= -1025
t_2_3 - t_2_5 - 1024.000000 u_2_3_5 - 2.427020 s_2_5 + 2.427020 s_2_8 + 2048.000000 r_2_3_5 > -1021.747875
t_1_6 - t_1_3 - 2.251148 s_1_3 + 2.099548 s_1_7 > 0.0
t_1_6 - t_2_3 - 3.820065 s_2_3 + 2.427020 s_2_7 > 0.0
t_2_6 - t_1_3 - 2.251148 s_1_3 + 2.099548 s_1_7 > 0.0
t_2_6 - t_2_3 - 3.820065 s_2_3 + 2.427020 s_2_7 > 0.0
t_1_3 - t_1_7 - 1024.000000 s_1_7 > -1022.892711
t_1_3 - t_2_7 - 1024.000000 s_2_7 > -1022.627800
t_2_3 - t_1_7 - 1024.000000 s_1_7 > -1022.892711
t_2_3 - t_2_7 - 1024.000000 s_2_7 > -1022.627800
t_1_3 - t_1_8 - 1024.000000 s_1_8 > -1022.924600
t_1_3 - t_2_8 - 1024.000000 s_2_8 > -1022.929011
t_2_3 - t_1_8 - 1024.000000 s_1_8 > -1022.924600
t_2_3 - t_2_8 - 1024.000000 s_2_8 > -1022.929011
s_1_4 + s_1_1 + 1024 r_1_1_4 >= 2
- s_1_4 - s_1_1 - 1024 r_1_1_4 >= -1025
t_1_4 - t_1_1 + 1024.000000 u_1_1_4 - 1.399699 s_1_1 + 1.399699 s_1_7 + 2048.000000 r_1_1_4 > 0.880200
s_2_4 + s_2_1 + 1024 r_2_1_4 >= 2
- s_2_4 - s_2_1 - 1024 r_2_1_4 >= -1025
t_2_4 - t_2_1 + 1024.000000 u_2_1_4 - 1.618014 s_2_1 + 1.618014 s_2_7 + 2048.000000 r_2_1_4 > 4.036833
s_1_4 + s_1_2 + 1024 r_1_2_4 >= 2
- s_1_4 - s_1_2 - 1024 r_1_2_4 >= -1025
t_1_4 - t_1_2 + 1024.000000 u_1_2_4 - 1.399699 s_1_2 + 1.399699 s_1_7 + 2048.000000 r_1_2_4 > 0.869500
s_2_4 + s_2_2 + 1024 r_2_2_4 >= 2
- s_2_4 - s_2_2 - 1024 r_2_2_4 >= -1025
t_2_4 - t_2_2 + 1024.000000 u_2_2_4 - 1.618014 s_2_2 + 1.618014 s_2_7 + 2048.000000 r_2_2_4 > 4.079350
s_1_4 + s_1_3 + 1024 r_1_3_4 >= 2
- s_1_4 - s_1_3 - 1024 r_1_3_4 >= -1025
t_1_4 - t_1_3 + 1024.000000 u_1_3_4 - 2.099548 s_1_3 + 2.099548 s_1_7 + 2048.000000 r_1_3_4 > 0.151600
s_2_4 + s_2_3 + 1024 r_2_3_4 >= 2
- s_2_4 - s_2_3 - 1024 r_2_3_4 >= -1025
t_2_4 - t_2_3 + 1024.000000 u_2_3_4 - 2.427020 s_2_3 + 2.427020 s_2_7 + 2048.000000 r_2_3_4 > 1.393044
s_1_4 + s_1_5 + 1024 r_1_4_5 >= 2
- s_1_4 - s_1_5 - 1024 r_1_4_5 >= -1025
t_1_4 - t_1_5 - 1024.000000 u_1_4_5 - 2.099548 s_1_5 + 2.099548 s_1_8 + 2048.000000 r_1_4_5 > -1023.628611
s_2_4 + s_2_5 + 1024 r_2_4_5 >= 2
- s_2_4 - s_2_5 - 1024 r_2_4_5 >= -1025
t_2_4 - t_2_5 - 1024.000000 u_2_4_5 - 2.427020 s_2_5 + 2.427020 s_2_8 + 2048.000000 r_2_4_5 > -1021.747875
t_1_6 - t_1_4 - 1.638999 s_1_4 + 1.399699 s_1_7 > 0.0
t_1_6 - t_2_4 - 3.688664 s_2_4 + 1.618014 s_2_7 > 0.0
t_2_6 - t_1_4 - 1.638999 s_1_4 + 1.399699 s_1_7 > 0.0
t_2_6 - t_2_4 - 3.688664 s_2_4 + 1.618014 s_2_7 > 0.0
t_1_4 - t_1_7 - 1024.000000 s_1_7 > -1022.892711
t_1_4 - t_2_7 - 1024.000000 s_2_7 > -1022.627800
t_2_4 - t_1_7 - 1024.000000 s_1_7 > -1022.892711
t_2_4 - t_2_7 - 1024.000000 s_2_7 > -1022.627800
s_1_4 + s_1_8 + 1024 r_1_4_8 >= 2
- s_1_4 - s_1_8 - 1024 r_1_4_8 >= -1025
t_1_4 - t_1_8 - 1024.000000 u_1_4_8 + 2048.000000 r_1_4_8 > -1022.924600
s_2_4 + s_2_8 + 1024 r_2_4_8 >= 2
- s_2_4 - s_2_8 - 1024 r_2_4_8 >= -1025
t_2_4 - t_2_8 - 1024.000000 u_2_4_8 + 2048.000000 r_2_4_8 > -1022.929011
s_1_5 + s_1_1 + 1024 r_1_1_5 >= 2
- s_1_5 - s_1_1 - 1024 r_1_1_5 >= -1025
t_1_5 - t_1_1 + 1024.000000 u_1_1_5 - 1.399699 s_1_1 + 1.399699 s_1_7 + 2048.000000 r_1_1_5 > 0.880200
s_2_5 + s_2_1 + 1024 r_2_1_5 >= 2
- s_2_5 - s_2_1 - 1024 r_2_1_5 >= -1025
t_2_5 - t_2_1 + 1024.000000 u_2_1_5 - 1.618014 s_2_1 + 1.618014 s_2_7 + 2048.000000 r_2_1_5 > 4.036833
s_1_5 + s_1_2 + 1024 r_1_2_5 >= 2
- s_1_5 - s_1_2 - 1024 r_1_2_5 >= -1025
t_1_5 - t_1_2 + 1024.000000 u_1_2_5 - 1.399699 s_1_2 + 1.399699 s_1_7 + 2048.000000 r_1_2_5 > 0.869500
s_2_5 + s_2_2 + 1024 r_2_2_5 >= 2
- s_2_5 - s_2_2 - 1024 r_2_2_5 >= -1025
t_2_5 - t_2_2 + 1024.000000 u_2_2_5 - 1.618014 s_2_2 + 1.618014 s_2_7 + 2048.000000 r_2_2_5 > 4.079350
s_1_5 + s_1_3 + 1024 r_1_3_5 >= 2
- s_1_5 - s_1_3 - 1024 r_1_3_5 >= -1025
t_1_5 - t_1_3 + 1024.000000 u_1_3_5 - 2.099548 s_1_3 + 2.099548 s_1_7 + 2048.000000 r_1_3_5 > 0.151600
s_2_5 + s_2_3 + 1024 r_2_3_5 >= 2
- s_2_5 - s_2_3 - 1024 r_2_3_5 >= -1025
t_2_5 - t_2_3 + 1024.000000 u_2_3_5 - 2.427020 s_2_3 + 2.427020 s_2_7 + 2048.000000 r_2_3_5 > 1.393044
s_1_5 + s_1_4 + 1024 r_1_4_5 >= 2
- s_1_5 - s_1_4 - 1024 r_1_4_5 >= -1025
t_1_5 - t_1_4 + 1024.000000 u_1_4_5 - 1.399699 s_1_4 + 1.399699 s_1_7 + 2048.000000 r_1_4_5 > 0.239300
s_2_5 + s_2_4 + 1024 r_2_4_5 >= 2
- s_2_5 - s_2_4 - 1024 r_2_4_5 >= -1025
t_2_5 - t_2_4 + 1024.000000 u_2_4_5 - 1.618014 s_2_4 + 1.618014 s_2_7 + 2048.000000 r_2_4_5 > 2.070650
t_1_6 - t_1_5 - 2.470937 s_1_5 + 2.099548 s_1_8 > 0.0
t_1_6 - t_2_5 - 4.679145 s_2_5 + 2.427020 s_2_8 > 0.0
t_2_6 - t_1_5 - 2.470937 s_1_5 + 2.099548 s_1_8 > 0.0
t_2_6 - t_2_5 - 4.679145 s_2_5 + 2.427020 s_2_8 > 0.0
s_1_5 + s_1_7 + 1024 r_1_5_7 >= 2
- s_1_5 - s_1_7 - 1024 r_1_5_7 >= -1025
t_1_5 - t_1_7 - 1024.000000 u_1_5_7 + 2048.000000 r_1_5_7 > -1022.892711
s_2_5 + s_2_7 + 1024 r_2_5_7 >= 2
- s_2_5 - s_2_7 - 1024 r_2_5_7 >= -1025
t_2_5 - t_2_7 - 1024.000000 u_2_5_7 + 2048.000000 r_2_5_7 > -1022.627800
t_1_5 - t_1_8 - 1024.000000 s_1_8 > -1022.924600
t_1_5 - t_2_8 - 1024.000000 s_2_8 > -1022.929011
t_2_5 - t_1_8 - 1024.000000 s_1_8 > -1022.924600
t_2_5 - t_2_8 - 1024.000000 s_2_8 > -1022.929011
t_1_6 - t_1_7 - 1024.000000 s_1_7 > -1022.892711
t_1_6 - t_2_7 - 1024.000000 s_2_7 > -1022.627800
t_2_6 - t_1_7 - 1024.000000 s_1_7 > -1022.892711
t_2_6 - t_2_7 - 1024.000000 s_2_7 > -1022.627800
s_1_7 + s_1_5 + 1024 r_1_5_7 >= 2
- s_1_7 - s_1_5 - 1024 r_1_5_7 >= -1025
t_1_7 - t_1_5 + 1024.000000 u_1_5_7 - 2.099548 s_1_5 + 2.099548 s_1_8 + 2048.000000 r_1_5_7 > 0.371389
s_2_7 + s_2_5 + 1024 r_2_5_7 >= 2
- s_2_7 - s_2_5 - 1024 r_2_5_7 >= -1025
t_2_7 - t_2_5 + 1024.000000 u_2_5_7 - 2.427020 s_2_5 + 2.427020 s_2_8 + 2048.000000 r_2_5_7 > 2.252125
s_1_7 + s_1_8 + 1024 r_1_7_8 >= 2
- s_1_7 - s_1_8 - 1024 r_1_7_8 >= -1025
t_1_7 - t_1_8 - 1024.000000 u_1_7_8 + 2048.000000 r_1_7_8 > -1022.924600
s_2_7 + s_2_8 + 1024 r_2_7_8 >= 2
- s_2_7 - s_2_8 - 1024 r_2_7_8 >= -1025
t_2_7 - t_2_8 - 1024.000000 u_2_7_8 + 2048.000000 r_2_7_8 > -1022.929011
s_1_8 + s_1_2 + 1024 r_1_2_8 >= 2
- s_1_8 - s_1_2 - 1024 r_1_2_8 >= -1025
t_1_8 - t_1_2 + 1024.000000 u_1_2_8 - 1.399699 s_1_2 + 1.399699 s_1_7 + 2048.000000 r_1_2_8 > 0.869500
s_2_8 + s_2_2 + 1024 r_2_2_8 >= 2
- s_2_8 - s_2_2 - 1024 r_2_2_8 >= -1025
t_2_8 - t_2_2 + 1024.000000 u_2_2_8 - 1.618014 s_2_2 + 1.618014 s_2_7 + 2048.000000 r_2_2_8 > 4.079350
s_1_8 + s_1_4 + 1024 r_1_4_8 >= 2
- s_1_8 - s_1_4 - 1024 r_1_4_8 >= -1025
t_1_8 - t_1_4 + 1024.000000 u_1_4_8 - 1.399699 s_1_4 + 1.399699 s_1_7 + 2048.000000 r_1_4_8 > 0.239300
s_2_8 + s_2_4 + 1024 r_2_4_8 >= 2
- s_2_8 - s_2_4 - 1024 r_2_4_8 >= -1025
t_2_8 - t_2_4 + 1024.000000 u_2_4_8 - 1.618014 s_2_4 + 1.618014 s_2_7 + 2048.000000 r_2_4_8 > 2.070650
s_1_8 + s_1_7 + 1024 r_1_7_8 >= 2
- s_1_8 - s_1_7 - 1024 r_1_7_8 >= -1025
t_1_8 - t_1_7 + 1024.000000 u_1_7_8 + 2048.000000 r_1_7_8 > 1.107289
s_2_8 + s_2_7 + 1024 r_2_7_8 >= 2
- s_2_8 - s_2_7 - 1024 r_2_7_8 >= -1025
t_2_8 - t_2_7 + 1024.000000 u_2_7_8 + 2048.000000 r_2_7_8 > 1.372200
Binary
s_1_1
s_2_1
s_1_2
s_2_2
s_1_3
s_2_3
s_1_4
s_2_4
s_1_5
s_2_5
s_1_6
s_2_6
s_1_7
s_2_7
s_1_8
s_2_8
u_1_1_2
r_1_1_2
u_2_1_2
r_2_1_2
u_1_1_3
r_1_1_3
u_2_1_3
r_2_1_3
u_1_1_4
r_1_1_4
u_2_1_4
r_2_1_4
u_1_1_5
r_1_1_5
u_2_1_5
r_2_1_5
u_1_2_3
r_1_2_3
u_2_2_3
r_2_2_3
u_1_2_4
r_1_2_4
u_2_2_4
r_2_2_4
u_1_2_5
r_1_2_5
u_2_2_5
r_2_2_5
u_1_2_8
r_1_2_8
u_2_2_8
r_2_2_8
u_1_3_4
r_1_3_4
u_2_3_4
r_2_3_4
u_1_3_5
r_1_3_5
u_2_3_5
r_2_3_5
u_1_4_5
r_1_4_5
u_2_4_5
r_2_4_5
u_1_4_8
r_1_4_8
u_2_4_8
r_2_4_8
u_1_5_7
r_1_5_7
u_2_5_7
r_2_5_7
u_1_7_8
r_1_7_8
u_2_7_8
r_2_7_8

End
